11201
1 0 1 0 0 1 0 1 1 0 1 1 1 0 1 1 1 1 1 1
5 18 17 10 8 18 18 8 18 0 10 0 19 0 0 5 15 2 2 7 0 12 16 17 14 19 17 10 7 0 7 19 19 8 10 16 18 0 18 18 7 0 18 18 19 7 12 7 15 7 2 7 19 0 11 5 16 17 16 14 11 18 8 10 2 14 5 17 16 14 11 15 8 19 14 10 5 19 15 10